NAME : tsp30_23.193.tour
COMMENT : Length = 193
COMMENT : Found by LKH [Keld Helsgaun]
TYPE : TOUR
DIMENSION : 30
TOUR_SECTION
1
15
17
30
26
4
24
10
18
29
16
20
9
13
21
14
8
6
7
2
23
27
19
3
12
22
11
25
5
28
-1
EOF
